InboundTrucks  = 10;
OutboundTrucks = 10;
InboundDoors   = 4;
OutboundDoors  = 4;
ReleaseTime    = [110,108,7,11,10,46,106,21,94,103];
UnloadTime     = [26,29,23,17,14,14,18,25,14,30];
LoadTime       = [7,18,6,12,12,6,18,5,9,10];
TransferTime   = [| 6,7,4,0,0,6,2,8,4,2 | 0,4,6,5,5,2,7,0,0,8 | 4,0,2,7,5,2,3,2,6,0 | 7,4,0,2,7,0,6,2,3,7 | 0,7,7,0,4,0,0,5,7,8 | 2,8,3,4,3,3,0,8,4,3 | 3,0,0,5,3,4,2,3,0,4 | 5,0,7,0,3,2,4,0,5,7 | 4,8,0,4,4,3,7,2,5,2 | 0,0,0,0,8,4,4,4,5,8 |];
